NAME : rbg050c.tw.10985.tour
COMMENT : Length = 10985
COMMENT : Found by LKH [Keld Helsgaun] Sun Sep 10 01:17:36 2017
TYPE : TOUR
DIMENSION : 51
TOUR_SECTION
1
2
3
4
5
6
7
12
22
29
16
18
8
13
17
9
11
20
19
10
14
28
15
36
21
25
24
27
33
31
47
30
23
39
42
34
26
44
48
32
35
37
43
41
40
38
50
49
45
51
46
-1
EOF
